Optimal - objective value 1.83376740
      0 C0000000       7.2694807             -0.24514196
      1 C0000001       58.786944                       0
      2 C0000002       1.8934154               2.1649455
      3 C0000003       3.4171694                       0
      4 C0000004               0               0.1532107
      0 X0000000               0              0.11086887
      1 X0000001               0                    1.06
      2 X0000002       12.729173                       0
      3 X0000003       11.484349                       0
      4 X0000004       1.9778515                       0
      5 X0000005               2             -0.24165947
